Ordonnancement/plne/source/petit_instance/5job/5job_17.dat
data;
param nombreJob := 5;
param nombreRessource := 3;
param duree := 1 10 2 1 3 3 4 6 5 1;
param capaciteRessource := 1 4 2 15 3 12;
param besoinRessource : 1 2 3 :=
                    1   3 4 6
                    2   1 4 6
                    3   1 4 3
                    4   3 4 10
                    5   4 5 4;
end;

