Ordonnancement/plne/source/glpk_resultat/5job/5job_17.sol
Problem:    glpsolRcpsp
Rows:       269
Columns:    106 (105 integer, 105 binary)
Non-zeros:  1771
Status:     INTEGER OPTIMAL
Objective:  obj = 17 (MINimum)

   No.   Row name        Activity     Lower bound   Upper bound
------ ------------    ------------- ------------- -------------
     1 periode[1]                 10            10             = 
     2 periode[2]                  1             1             = 
     3 periode[3]                  3             3             = 
     4 periode[4]                  6             6             = 
     5 periode[5]                  1             1             = 
     6 complet[1,1]                8                          10 
     7 complet[1,2]                7                          10 
     8 complet[1,3]                6                          10 
     9 complet[1,4]                5                          10 
    10 complet[1,5]                4                          10 
    11 complet[1,6]                3                          10 
    12 complet[1,7]                2                          10 
    13 complet[1,8]                1                          10 
    14 complet[1,9]                0                          10 
    15 complet[1,10]
                                  10                          10 
    16 complet[1,11]
                                   0                          10 
    17 complet[1,12]
                                   0                          10 
    18 complet[1,13]
                                   0                          10 
    19 complet[1,14]
                                   0                          10 
    20 complet[1,15]
                                   0                          10 
    21 complet[1,16]
                                   0                          10 
    22 complet[1,17]
                                   0                          10 
    23 complet[1,18]
                                   0                          10 
    24 complet[1,19]
                                   0                          10 
    25 complet[2,1]                1                           1 
    26 complet[2,2]                1                           1 
    27 complet[2,3]                1                           1 
    28 complet[2,4]                1                           1 
    29 complet[2,5]                1                           1 
    30 complet[2,6]                1                           1 
    31 complet[2,7]                1                           1 
    32 complet[2,8]                1                           1 
    33 complet[2,9]               -1                           1 
    34 complet[2,10]
                                   1                           1 
    35 complet[2,11]
                                   0                           1 
    36 complet[2,12]
                                   0                           1 
    37 complet[2,13]
                                   0                           1 
    38 complet[2,14]
                                   0                           1 
    39 complet[2,15]
                                   0                           1 
    40 complet[2,16]
                                   0                           1 
    41 complet[2,17]
                                   0                           1 
    42 complet[2,18]
                                   0                           1 
    43 complet[2,19]
                                   0                           1 
    44 complet[3,1]                3                           3 
    45 complet[3,2]                3                           3 
    46 complet[3,3]                3                           3 
    47 complet[3,4]                3                           3 
    48 complet[3,5]                3                           3 
    49 complet[3,6]               -1                           3 
    50 complet[3,7]                1                           3 
    51 complet[3,8]                0                           3 
    52 complet[3,9]                3                           3 
    53 complet[3,10]
                                   0                           3 
    54 complet[3,11]
                                   0                           3 
    55 complet[3,12]
                                   0                           3 
    56 complet[3,13]
                                   0                           3 
    57 complet[3,14]
                                   0                           3 
    58 complet[3,15]
                                   0                           3 
    59 complet[3,16]
                                   0                           3 
    60 complet[3,17]
                                   0                           3 
    61 complet[3,18]
                                   0                           3 
    62 complet[3,19]
                                   0                           3 
    63 complet[4,1]                6                           6 
    64 complet[4,2]                6                           6 
    65 complet[4,3]                6                           6 
    66 complet[4,4]                6                           6 
    67 complet[4,5]                6                           6 
    68 complet[4,6]                6                           6 
    69 complet[4,7]                6                           6 
    70 complet[4,8]                6                           6 
    71 complet[4,9]                6                           6 
    72 complet[4,10]
                                  -1                           6 
    73 complet[4,11]
                                   4                           6 
    74 complet[4,12]
                                   3                           6 
    75 complet[4,13]
                                   2                           6 
    76 complet[4,14]
                                   1                           6 
    77 complet[4,15]
                                   0                           6 
    78 complet[4,16]
                                   6                           6 
    79 complet[4,17]
                                   0                           6 
    80 complet[4,18]
                                   0                           6 
    81 complet[4,19]
                                   0                           6 
    82 complet[5,1]                1                           1 
    83 complet[5,2]                1                           1 
    84 complet[5,3]                1                           1 
    85 complet[5,4]                1                           1 
    86 complet[5,5]                1                           1 
    87 complet[5,6]                1                           1 
    88 complet[5,7]                1                           1 
    89 complet[5,8]                1                           1 
    90 complet[5,9]                1                           1 
    91 complet[5,10]
                                   1                           1 
    92 complet[5,11]
                                   1                           1 
    93 complet[5,12]
                                   1                           1 
    94 complet[5,13]
                                   1                           1 
    95 complet[5,14]
                                   1                           1 
    96 complet[5,15]
                                   1                           1 
    97 complet[5,16]
                                  -1                           1 
    98 complet[5,17]
                                   1                           1 
    99 complet[5,18]
                                   0                           1 
   100 complet[5,19]
                                   0                           1 
   101 cmax[1,1]                  16            -0               
   102 cmax[1,2]                  15            -0               
   103 cmax[1,3]                  14            -0               
   104 cmax[1,4]                  13            -0               
   105 cmax[1,5]                  12            -0               
   106 cmax[1,6]                  11            -0               
   107 cmax[1,7]                  10            -0               
   108 cmax[1,8]                   9            -0               
   109 cmax[1,9]                   8            -0               
   110 cmax[1,10]                  7            -0               
   111 cmax[1,11]                 17            -0               
   112 cmax[1,12]                 17            -0               
   113 cmax[1,13]                 17            -0               
   114 cmax[1,14]                 17            -0               
   115 cmax[1,15]                 17            -0               
   116 cmax[1,16]                 17            -0               
   117 cmax[1,17]                 17            -0               
   118 cmax[1,18]                 17            -0               
   119 cmax[1,19]                 17            -0               
   120 cmax[1,20]                 17            -0               
   121 cmax[1,21]                 17            -0               
   122 cmax[2,1]                  17            -0               
   123 cmax[2,2]                  17            -0               
   124 cmax[2,3]                  17            -0               
   125 cmax[2,4]                  17            -0               
   126 cmax[2,5]                  17            -0               
   127 cmax[2,6]                  17            -0               
   128 cmax[2,7]                  17            -0               
   129 cmax[2,8]                  17            -0               
   130 cmax[2,9]                  17            -0               
   131 cmax[2,10]                  7            -0               
   132 cmax[2,11]                 17            -0               
   133 cmax[2,12]                 17            -0               
   134 cmax[2,13]                 17            -0               
   135 cmax[2,14]                 17            -0               
   136 cmax[2,15]                 17            -0               
   137 cmax[2,16]                 17            -0               
   138 cmax[2,17]                 17            -0               
   139 cmax[2,18]                 17            -0               
   140 cmax[2,19]                 17            -0               
   141 cmax[2,20]                 17            -0               
   142 cmax[2,21]                 17            -0               
   143 cmax[3,1]                  17            -0               
   144 cmax[3,2]                  17            -0               
   145 cmax[3,3]                  17            -0               
   146 cmax[3,4]                  17            -0               
   147 cmax[3,5]                  17            -0               
   148 cmax[3,6]                  17            -0               
   149 cmax[3,7]                  10            -0               
   150 cmax[3,8]                   9            -0               
   151 cmax[3,9]                   8            -0               
   152 cmax[3,10]                 17            -0               
   153 cmax[3,11]                 17            -0               
   154 cmax[3,12]                 17            -0               
   155 cmax[3,13]                 17            -0               
   156 cmax[3,14]                 17            -0               
   157 cmax[3,15]                 17            -0               
   158 cmax[3,16]                 17            -0               
   159 cmax[3,17]                 17            -0               
   160 cmax[3,18]                 17            -0               
   161 cmax[3,19]                 17            -0               
   162 cmax[3,20]                 17            -0               
   163 cmax[3,21]                 17            -0               
   164 cmax[4,1]                  17            -0               
   165 cmax[4,2]                  17            -0               
   166 cmax[4,3]                  17            -0               
   167 cmax[4,4]                  17            -0               
   168 cmax[4,5]                  17            -0               
   169 cmax[4,6]                  17            -0               
   170 cmax[4,7]                  17            -0               
   171 cmax[4,8]                  17            -0               
   172 cmax[4,9]                  17            -0               
   173 cmax[4,10]                 17            -0               
   174 cmax[4,11]                  6            -0               
   175 cmax[4,12]                  5            -0               
   176 cmax[4,13]                  4            -0               
   177 cmax[4,14]                  3            -0               
   178 cmax[4,15]                  2            -0               
   179 cmax[4,16]                  1            -0               
   180 cmax[4,17]                 17            -0               
   181 cmax[4,18]                 17            -0               
   182 cmax[4,19]                 17            -0               
   183 cmax[4,20]                 17            -0               
   184 cmax[4,21]                 17            -0               
   185 cmax[5,1]                  17            -0               
   186 cmax[5,2]                  17            -0               
   187 cmax[5,3]                  17            -0               
   188 cmax[5,4]                  17            -0               
   189 cmax[5,5]                  17            -0               
   190 cmax[5,6]                  17            -0               
   191 cmax[5,7]                  17            -0               
   192 cmax[5,8]                  17            -0               
   193 cmax[5,9]                  17            -0               
   194 cmax[5,10]                 17            -0               
   195 cmax[5,11]                 17            -0               
   196 cmax[5,12]                 17            -0               
   197 cmax[5,13]                 17            -0               
   198 cmax[5,14]                 17            -0               
   199 cmax[5,15]                 17            -0               
   200 cmax[5,16]                 17            -0               
   201 cmax[5,17]                  0            -0               
   202 cmax[5,18]                 17            -0               
   203 cmax[5,19]                 17            -0               
   204 cmax[5,20]                 17            -0               
   205 cmax[5,21]                 17            -0               
   206 ressource[1,1]
                                   3                           4 
   207 ressource[1,2]
                                   3                           4 
   208 ressource[1,3]
                                   3                           4 
   209 ressource[1,4]
                                   3                           4 
   210 ressource[1,5]
                                   3                           4 
   211 ressource[1,6]
                                   3                           4 
   212 ressource[1,7]
                                   4                           4 
   213 ressource[1,8]
                                   4                           4 
   214 ressource[1,9]
                                   4                           4 
   215 ressource[1,10]
                                   4                           4 
   216 ressource[1,11]
                                   3                           4 
   217 ressource[1,12]
                                   3                           4 
   218 ressource[1,13]
                                   3                           4 
   219 ressource[1,14]
                                   3                           4 
   220 ressource[1,15]
                                   3                           4 
   221 ressource[1,16]
                                   3                           4 
   222 ressource[1,17]
                                   4                           4 
   223 ressource[1,18]
                                   0                           4 
   224 ressource[1,19]
                                   0                           4 
   225 ressource[1,20]
                                   0                           4 
   226 ressource[1,21]
                                   0                           4 
   227 ressource[2,1]
                                   4                          15 
   228 ressource[2,2]
                                   4                          15 
   229 ressource[2,3]
                                   4                          15 
   230 ressource[2,4]
                                   4                          15 
   231 ressource[2,5]
                                   4                          15 
   232 ressource[2,6]
                                   4                          15 
   233 ressource[2,7]
                                   8                          15 
   234 ressource[2,8]
                                   8                          15 
   235 ressource[2,9]
                                   8                          15 
   236 ressource[2,10]
                                   8                          15 
   237 ressource[2,11]
                                   4                          15 
   238 ressource[2,12]
                                   4                          15 
   239 ressource[2,13]
                                   4                          15 
   240 ressource[2,14]
                                   4                          15 
   241 ressource[2,15]
                                   4                          15 
   242 ressource[2,16]
                                   4                          15 
   243 ressource[2,17]
                                   5                          15 
   244 ressource[2,18]
                                   0                          15 
   245 ressource[2,19]
                                   0                          15 
   246 ressource[2,20]
                                   0                          15 
   247 ressource[2,21]
                                   0                          15 
   248 ressource[3,1]
                                   6                          12 
   249 ressource[3,2]
                                   6                          12 
   250 ressource[3,3]
                                   6                          12 
   251 ressource[3,4]
                                   6                          12 
   252 ressource[3,5]
                                   6                          12 
   253 ressource[3,6]
                                   6                          12 
   254 ressource[3,7]
                                   9                          12 
   255 ressource[3,8]
                                   9                          12 
   256 ressource[3,9]
                                   9                          12 
   257 ressource[3,10]
                                  12                          12 
   258 ressource[3,11]
                                  10                          12 
   259 ressource[3,12]
                                  10                          12 
   260 ressource[3,13]
                                  10                          12 
   261 ressource[3,14]
                                  10                          12 
   262 ressource[3,15]
                                  10                          12 
   263 ressource[3,16]
                                  10                          12 
   264 ressource[3,17]
                                   4                          12 
   265 ressource[3,18]
                                   0                          12 
   266 ressource[3,19]
                                   0                          12 
   267 ressource[3,20]
                                   0                          12 
   268 ressource[3,21]
                                   0                          12 
   269 obj                        17                             

   No. Column name       Activity     Lower bound   Upper bound
------ ------------    ------------- ------------- -------------
     1 x[1,1]       *              1             0             1 
     2 x[1,2]       *              1             0             1 
     3 x[1,3]       *              1             0             1 
     4 x[1,4]       *              1             0             1 
     5 x[1,5]       *              1             0             1 
     6 x[1,6]       *              1             0             1 
     7 x[1,7]       *              1             0             1 
     8 x[1,8]       *              1             0             1 
     9 x[1,9]       *              1             0             1 
    10 x[1,10]      *              1             0             1 
    11 x[1,11]      *              0             0             1 
    12 x[1,12]      *              0             0             1 
    13 x[1,13]      *              0             0             1 
    14 x[1,14]      *              0             0             1 
    15 x[1,15]      *              0             0             1 
    16 x[1,16]      *              0             0             1 
    17 x[1,17]      *              0             0             1 
    18 x[1,18]      *              0             0             1 
    19 x[1,19]      *              0             0             1 
    20 x[1,20]      *              0             0             1 
    21 x[1,21]      *              0             0             1 
    22 x[2,1]       *              0             0             1 
    23 x[2,2]       *              0             0             1 
    24 x[2,3]       *              0             0             1 
    25 x[2,4]       *              0             0             1 
    26 x[2,5]       *              0             0             1 
    27 x[2,6]       *              0             0             1 
    28 x[2,7]       *              0             0             1 
    29 x[2,8]       *              0             0             1 
    30 x[2,9]       *              0             0             1 
    31 x[2,10]      *              1             0             1 
    32 x[2,11]      *              0             0             1 
    33 x[2,12]      *              0             0             1 
    34 x[2,13]      *              0             0             1 
    35 x[2,14]      *              0             0             1 
    36 x[2,15]      *              0             0             1 
    37 x[2,16]      *              0             0             1 
    38 x[2,17]      *              0             0             1 
    39 x[2,18]      *              0             0             1 
    40 x[2,19]      *              0             0             1 
    41 x[2,20]      *              0             0             1 
    42 x[2,21]      *              0             0             1 
    43 x[3,1]       *              0             0             1 
    44 x[3,2]       *              0             0             1 
    45 x[3,3]       *              0             0             1 
    46 x[3,4]       *              0             0             1 
    47 x[3,5]       *              0             0             1 
    48 x[3,6]       *              0             0             1 
    49 x[3,7]       *              1             0             1 
    50 x[3,8]       *              1             0             1 
    51 x[3,9]       *              1             0             1 
    52 x[3,10]      *              0             0             1 
    53 x[3,11]      *              0             0             1 
    54 x[3,12]      *              0             0             1 
    55 x[3,13]      *              0             0             1 
    56 x[3,14]      *              0             0             1 
    57 x[3,15]      *              0             0             1 
    58 x[3,16]      *              0             0             1 
    59 x[3,17]      *              0             0             1 
    60 x[3,18]      *              0             0             1 
    61 x[3,19]      *              0             0             1 
    62 x[3,20]      *              0             0             1 
    63 x[3,21]      *              0             0             1 
    64 x[4,1]       *              0             0             1 
    65 x[4,2]       *              0             0             1 
    66 x[4,3]       *              0             0             1 
    67 x[4,4]       *              0             0             1 
    68 x[4,5]       *              0             0             1 
    69 x[4,6]       *              0             0             1 
    70 x[4,7]       *              0             0             1 
    71 x[4,8]       *              0             0             1 
    72 x[4,9]       *              0             0             1 
    73 x[4,10]      *              0             0             1 
    74 x[4,11]      *              1             0             1 
    75 x[4,12]      *              1             0             1 
    76 x[4,13]      *              1             0             1 
    77 x[4,14]      *              1             0             1 
    78 x[4,15]      *              1             0             1 
    79 x[4,16]      *              1             0             1 
    80 x[4,17]      *              0             0             1 
    81 x[4,18]      *              0             0             1 
    82 x[4,19]      *              0             0             1 
    83 x[4,20]      *              0             0             1 
    84 x[4,21]      *              0             0             1 
    85 x[5,1]       *              0             0             1 
    86 x[5,2]       *              0             0             1 
    87 x[5,3]       *              0             0             1 
    88 x[5,4]       *              0             0             1 
    89 x[5,5]       *              0             0             1 
    90 x[5,6]       *              0             0             1 
    91 x[5,7]       *              0             0             1 
    92 x[5,8]       *              0             0             1 
    93 x[5,9]       *              0             0             1 
    94 x[5,10]      *              0             0             1 
    95 x[5,11]      *              0             0             1 
    96 x[5,12]      *              0             0             1 
    97 x[5,13]      *              0             0             1 
    98 x[5,14]      *              0             0             1 
    99 x[5,15]      *              0             0             1 
   100 x[5,16]      *              0             0             1 
   101 x[5,17]      *              1             0             1 
   102 x[5,18]      *              0             0             1 
   103 x[5,19]      *              0             0             1 
   104 x[5,20]      *              0             0             1 
   105 x[5,21]      *              0             0             1 
   106 z                          17                             

Integer feasibility conditions:

KKT.PE: max.abs.err = 0.00e+00 on row 0
        max.rel.err = 0.00e+00 on row 0
        High quality

KKT.PB: max.abs.err = 0.00e+00 on row 0
        max.rel.err = 0.00e+00 on row 0
        High quality

End of output
